Route #1: 25 4 18 26 47 49 9 37
Route #2: 34 48 7 40 2
Route #3: 20 36 11 16 43 33 12 27
Route #4: 44 30 32 28 29 19 24
Route #5: 46 1 5
Route #6: 6 31 14 38 13 3
Route #7: 35 39 45 41 23 22
Route #8: 15 8 17 42 21 10
Cost 1318
Time 0.11752
